4249 2034 1720 1092 3935 5191 4563 1406 4877 3756 3962 312 285 518 1119 2895 5110 545 859 2527 3648 3702 4276 25 1693 1980 3074 3128 3155 3388 3729 4016 4536 4796 4850 5711 5944 231 258 572 599 805 832 886 1146 1173 1379 1433 1460 1639 1666 1747 1926 1953 2007 2213 2240 2267 2294 2321 2500 2554 2581 2608 2787 2814 2841 2868 3101 3182 3361 3415 3442 3469 3675 3989 4043 4222 4303 4330 4509 4590 4617 4823 4904 5083 5137 5164 5370 5397 5424 5451 5657 5684 5738 
